\ENCODING=ISO-8859-1
\Problem name: ilog.cplex

Minimize
 obj1: 102361 x1 + 105562 x2 + 99634 x3 + 106477 x4 + 100814 x5 + 106309 x6
       + 97670 x7 + 92607 x8 + 101732 x9 + 98477 x10 + 96927 x11 + 96590 x12
       + 95586 x13 + 102444 x14 + 96430 x15 + 96808 x16 + 96089 x17
       + 102225 x18 + 108130 x19 + 107392 x20 + 109419 x21 + 98210 x22
       + 94639 x23 + 107973 x24 + 90443 x25 + 99268 x26 + 103503 x27
       + 94872 x28 + 106689 x29 + 107751 x30 + 97806 x31 + 94859 x32
       + 91595 x33 + 105015 x34 + 91537 x35 + 96983 x36 + 109986 x37
       + 104760 x38 + 97368 x39 + 108012 x40 + 100808 x41 + 106873 x42
       + 104369 x43 + 102664 x44 + 104782 x45 + 95344 x46 + 103664 x47
       + 101059 x48 + 107988 x49 + 100484 x50 + 91150 x51 + 102761 x52
       + 96272 x53 + 107809 x54 + 98143 x55 + 99241 x56 + 99956 x57
       + 103852 x58 + 93170 x59 + 94792 x60 + 109652 x61 + 100399 x62
       + 95072 x63 + 99593 x64 + 98516 x65 + 100678 x66 + 90329 x67 + 96450 x68
       + 92626 x69 + 104064 x70 + 104349 x71 + 107605 x72 + 104259 x73
       + 101271 x74 + 91913 x75 + 99350 x76 + 98737 x77 + 92780 x78 + 96022 x79
       + 95823 x80 + 100942 x81 + 104105 x82 + 97662 x83 + 98845 x84
       + 100854 x85 + 105891 x86 + 101294 x87 + 104781 x88 + 95781 x89
       + 107391 x90 + 109876 x91 + 91022 x92 + 95709 x93 + 102662 x94
       + 107368 x95 + 103329 x96 + 102590 x97 + 100262 x98 + 96347 x99
       + 104513 x100 + 94433 x101 + 99260 x102 + 93689 x103 + 104768 x104
       + 100660 x105 + 107062 x106 + 108243 x107 + 104496 x108 + 106514 x109
       + 107863 x110 + 91009 x111 + 101546 x112 + 91154 x113 + 104426 x114
       + 100517 x115 + 106547 x116 + 106618 x117 + 90494 x118 + 103961 x119
       + 92358 x120 + 96683 x121 + 98748 x122 + 105152 x123 + 102855 x124
       + 100458 x125 + 105077 x126 + 96654 x127 + 95882 x128 + 98912 x129
       + 97169 x130 + 106807 x131 + 95402 x132 + 107027 x133 + 107120 x134
       + 95880 x135 + 106217 x136 + 96621 x137 + 108573 x138 + 90865 x139
       + 94054 x140 + 108415 x141 + 95498 x142 + 109451 x143 + 91286 x144
       + 99131 x145 + 104929 x146 + 91645 x147 + 99685 x148 + 91095 x149
       + 96634 x150 + 95411 x151 + 104390 x152 + 109752 x153 + 101464 x154
       + 93476 x155 + 107296 x156 + 103147 x157 + 104512 x158 + 109889 x159
       + 107845 x160 + 96656 x161 + 99243 x162 + 96979 x163 + 104458 x164
       + 106103 x165 + 94407 x166 + 96001 x167 + 100874 x168 + 92905 x169
       + 96787 x170 + 108112 x171 + 98195 x172 + 95987 x173 + 109766 x174
       + 106182 x175 + 95659 x176 + 96956 x177 + 100193 x178 + 102558 x179
       + 91009 x180 + 104759 x181 + 109978 x182 + 106202 x183 + 103037 x184
       + 91749 x185 + 99289 x186 + 105389 x187 + 108709 x188 + 108106 x189
       + 91300 x190 + 97668 x191 + 92111 x192 + 92026 x193 + 106792 x194
       + 93362 x195 + 98081 x196 + 92773 x197 + 98327 x198 + 95892 x199
       + 108075 x200 + 103882 x201 + 107056 x202 + 109235 x203 + 95494 x204
       + 103716 x205 + 102247 x206 + 99258 x207 + 96496 x208 + 99416 x209
       + 93781 x210 + 97242 x211 + 100447 x212 + 108699 x213 + 95857 x214
       + 102631 x215 + 94992 x216 + 98058 x217 + 98769 x218 + 106469 x219
       + 92139 x220 + 105611 x221 + 94840 x222 + 96981 x223 + 93815 x224
       + 92215 x225 + 104482 x226 + 104439 x227 + 107989 x228 + 105356 x229
       + 98815 x230 + 93664 x231 + 99832 x232 + 106974 x233 + 96418 x234
       + 99470 x235 + 96212 x236 + 108542 x237 + 103497 x238 + 102835 x239
       + 96470 x240 + 97526 x241 + 99167 x242 + 100284 x243 + 100428 x244
       + 97205 x245 + 109339 x246 + 104738 x247 + 94072 x248 + 96077 x249
       + 103489 x250 + 104611 x251 + 103174 x252 + 95180 x253 + 93810 x254
       + 107672 x255 + 92268 x256 + 104640 x257 + 107307 x258 + 99387 x259
       + 96094 x260 + 96525 x261 + 91719 x262 + 104644 x263 + 92125 x264
       + 94196 x265 + 109841 x266 + 104854 x267 + 101925 x268 + 109950 x269
       + 108566 x270 + 103499 x271 + 104916 x272 + 102949 x273 + 97419 x274
       + 91188 x275 + 106943 x276 + 90208 x277 + 105470 x278 + 109878 x279
       + 100387 x280 + 104867 x281 + 105167 x282 + 95177 x283 + 102616 x284
       + 97987 x285 + 97010 x286 + 105495 x287 + 105197 x288 + 102825 x289
       + 99921 x290 + 107298 x291 + 107563 x292 + 103816 x293 + 108746 x294
       + 96847 x295 + 105745 x296 + 96424 x297 + 102546 x298 + 100522 x299
       - 80005 x300 + 210478 x301 + 219469 x302 + 219761 x303 + 213202 x304
       + 200218 x305 + 219399 x306 + 193978 x307 + 183980 x308 + 190343 x309
       + 209997 x310 + 216670 x311 + 202975 x312 + 216811 x313 + 184283 x314
       + 190077 x315 + 205696 x316 + 189287 x317 + 201291 x318 + 184515 x319
       + 212443 x320 + 205952 x321 + 206089 x322 + 187435 x323 + 195681 x324
       + 201610 x325 + 190233 x326 + 194802 x327 + 193380 x328 + 218102 x329
       + 187107 x330 + 201180 x331 + 211243 x332 + 194190 x333 + 219447 x334
       + 204915 x335 + 216444 x336 + 214007 x337 + 182945 x338 + 198635 x339
       + 188977 x340 + 188820 x341 + 200193 x342 + 182787 x343 + 203973 x344
       + 216266 x345 + 213311 x346 + 201253 x347 + 189262 x348 + 204389 x349
       + 181469 x350 + 213093 x351 + 217245 x352 + 204723 x353 + 211116 x354
       + 203295 x355 + 188578 x356 + 189336 x357 + 192051 x358 + 217902 x359
       + 103691 x360
Subject To
 c1:   x8 - x17 + x18 + x21 - x35 - x39 + x51  = 0
 c2:   x68 - x77 + x78 + x81 - x95 - x99 + x111  = 0
 c3:   x128 - x137 + x138 + x141 - x155 - x159 + x171  = 0
 c4:   x188 - x197 + x198 + x201 - x215 - x219 + x231  = 0
 c5:   x248 - x257 + x258 + x261 - x275 - x279 + x291  = 0
 c6:   x2 - x3 - x11 + x35 + x43 + x56 + x58  = 0
 c7:   x62 - x63 - x71 + x95 + x103 + x116 + x118  = 0
 c8:   x122 - x123 - x131 + x155 + x163 + x176 + x178  = 0
 c9:   x182 - x183 - x191 + x215 + x223 + x236 + x238  = 0
 c10:  x242 - x243 - x251 + x275 + x283 + x296 + x298  = 0
 c11:  x1 + x15 + x23 - x26 - x27 + x38 - x58  = 1
 c12:  x61 + x75 + x83 - x86 - x87 + x98 - x118  = 0
 c13:  x121 + x135 + x143 - x146 - x147 + x158 - x178  = 0
 c14:  x181 + x195 + x203 - x206 - x207 + x218 - x238  = -1
 c15:  x241 + x255 + x263 - x266 - x267 + x278 - x298  = 0
 c16:  x32 + x36 + x39 - x49 + x55 - x60  = 0
 c17:  x92 + x96 + x99 - x109 + x115 - x120  = 0
 c18:  x152 + x156 + x159 - x169 + x175 - x180  = 0
 c19:  x212 + x216 + x219 - x229 + x235 - x240  = 1
 c20:  x272 + x276 + x279 - x289 + x295 - x300  = 0
 c21:  - x14 - x16 + x24 - x32 - x37 + x48 - x50 - x57  = 0
 c22:  - x74 - x76 + x84 - x92 - x97 + x108 - x110 - x117  = 0
 c23:  - x134 - x136 + x144 - x152 - x157 + x168 - x170 - x177  = 0
 c24:  - x194 - x196 + x204 - x212 - x217 + x228 - x230 - x237  = 0
 c25:  - x254 - x256 + x264 - x272 - x277 + x288 - x290 - x297  = 0
 c26:  x11 + x12 + x25 + x42 + x59  = 0
 c27:  x71 + x72 + x85 + x102 + x119  = 0
 c28:  x131 + x132 + x145 + x162 + x179  = 0
 c29:  x191 + x192 + x205 + x222 + x239  = 0
 c30:  x251 + x252 + x265 + x282 + x299  = 0
 c31:  - x2 + x7 - x20 - x29 - x33 + x37 - x46 - x47 + x53  = 0
 c32:  - x62 + x67 - x80 - x89 - x93 + x97 - x106 - x107 + x113  = 0
 c33:  - x122 + x127 - x140 - x149 - x153 + x157 - x166 - x167 + x173  = -1
 c34:  - x182 + x187 - x200 - x209 - x213 + x217 - x226 - x227 + x233  = 0
 c35:  - x242 + x247 - x260 - x269 - x273 + x277 - x286 - x287 + x293  = 0
 c36:  x17 + x40 - x48 + x50 + x52  = 0
 c37:  x77 + x100 - x108 + x110 + x112  = 0
 c38:  x137 + x160 - x168 + x170 + x172  = 0
 c39:  x197 + x220 - x228 + x230 + x232  = 0
 c40:  x257 + x280 - x288 + x290 + x292  = 0
 c41:  - x6 + x10 + x13 + x14 - x18 + x26 + x29 - x31 - x43 - x52 + x60  = 0
 c42:  - x66 + x70 + x73 + x74 - x78 + x86 + x89 - x91 - x103 - x112 + x120
        = -1
 c43:  - x126 + x130 + x133 + x134 - x138 + x146 + x149 - x151 - x163 - x172
       + x180  = 0
 c44:  - x186 + x190 + x193 + x194 - x198 + x206 + x209 - x211 - x223 - x232
       + x240  = 0
 c45:  - x246 + x250 + x253 + x254 - x258 + x266 + x269 - x271 - x283 - x292
       + x300  = 0
 c46:  - x4 - x5 - x9 - x12 + x28 - x34 + x44 + x46  = 0
 c47:  - x64 - x65 - x69 - x72 + x88 - x94 + x104 + x106  = 1
 c48:  - x124 - x125 - x129 - x132 + x148 - x154 + x164 + x166  = 0
 c49:  - x184 - x185 - x189 - x192 + x208 - x214 + x224 + x226  = 0
 c50:  - x244 - x245 - x249 - x252 + x268 - x274 + x284 + x286  = 0
 c51:  x4 + x27 - x42 - x45 + x49 + x57  = 0
 c52:  x64 + x87 - x102 - x105 + x109 + x117  = 0
 c53:  x124 + x147 - x162 - x165 + x169 + x177  = 0
 c54:  x184 + x207 - x222 - x225 + x229 + x237  = 0
 c55:  x244 + x267 - x282 - x285 + x289 + x297  = -1
 c56:  - x1 + x5 + x16 + x20 + x22 + x31 + x41 - x44 - x54 - x55  = -1
 c57:  - x61 + x65 + x76 + x80 + x82 + x91 + x101 - x104 - x114 - x115  = 0
 c58:  - x121 + x125 + x136 + x140 + x142 + x151 + x161 - x164 - x174 - x175
        = 0
 c59:  - x181 + x185 + x196 + x200 + x202 + x211 + x221 - x224 - x234 - x235
        = 0
 c60:  - x241 + x245 + x256 + x260 + x262 + x271 + x281 - x284 - x294 - x295
        = 0
 c61:  x3 - x8 - x19 + x30 + x34 - x36 - x38 - x40 - x41 + x45  = 0
 c62:  x63 - x68 - x79 + x90 + x94 - x96 - x98 - x100 - x101 + x105  = 0
 c63:  x123 - x128 - x139 + x150 + x154 - x156 - x158 - x160 - x161 + x165  = 1
 c64:  x183 - x188 - x199 + x210 + x214 - x216 - x218 - x220 - x221 + x225  = 0
 c65:  x243 - x248 - x259 + x270 + x274 - x276 - x278 - x280 - x281 + x285  = 0
 c66:  x6 + x9 - x13 + x19 - x22 - x23 - x24 - x25 - x30 + x33 - x51 - x53
       + x54 - x56  = 0
 c67:  x66 + x69 - x73 + x79 - x82 - x83 - x84 - x85 - x90 + x93 - x111 - x113
       + x114 - x116  = 0
 c68:  x126 + x129 - x133 + x139 - x142 - x143 - x144 - x145 - x150 + x153
       - x171 - x173 + x174 - x176  = 0
 c69:  x186 + x189 - x193 + x199 - x202 - x203 - x204 - x205 - x210 + x213
       - x231 - x233 + x234 - x236  = 0
 c70:  x246 + x249 - x253 + x259 - x262 - x263 - x264 - x265 - x270 + x273
       - x291 - x293 + x294 - x296  = 0
 c71:  - x7 - x10 - x15 - x21 - x28 + x47 - x59  = 0
 c72:  - x67 - x70 - x75 - x81 - x88 + x107 - x119  = 0
 c73:  - x127 - x130 - x135 - x141 - x148 + x167 - x179  = 0
 c74:  - x187 - x190 - x195 - x201 - x208 + x227 - x239  = 0
 c75:  - x247 - x250 - x255 - x261 - x268 + x287 - x299  = 1
 c76:  4 x1 + 4 x61 + 4 x121 + 4 x181 + 4 x241 - 9 x301 <= 0
 c77:  4 x2 + 4 x62 + 4 x122 + 4 x182 + 4 x242 - 10 x302 <= 0
 c78:  4 x3 + 4 x63 + 4 x123 + 4 x183 + 4 x243 - 9 x303 <= 0
 c79:  4 x4 + 4 x64 + 4 x124 + 4 x184 + 4 x244 - 9 x304 <= 0
 c80:  4 x5 + 4 x65 + 4 x125 + 4 x185 + 4 x245 - 9 x305 <= 0
 c81:  4 x6 + 4 x66 + 4 x126 + 4 x186 + 4 x246 - 9 x306 <= 0
 c82:  4 x7 + 4 x67 + 4 x127 + 4 x187 + 4 x247 - 10 x307 <= 0
 c83:  4 x8 + 4 x68 + 4 x128 + 4 x188 + 4 x248 - 11 x308 <= 0
 c84:  4 x9 + 4 x69 + 4 x129 + 4 x189 + 4 x249 - 11 x309 <= 0
 c85:  4 x10 + 4 x70 + 4 x130 + 4 x190 + 4 x250 - 10 x310 <= 0
 c86:  4 x11 + 4 x71 + 4 x131 + 4 x191 + 4 x251 - 10 x311 <= 0
 c87:  4 x12 + 4 x72 + 4 x132 + 4 x192 + 4 x252 - 11 x312 <= 0
 c88:  4 x13 + 4 x73 + 4 x133 + 4 x193 + 4 x253 - 9 x313 <= 0
 c89:  4 x14 + 4 x74 + 4 x134 + 4 x194 + 4 x254 - 10 x314 <= 0
 c90:  4 x15 + 4 x75 + 4 x135 + 4 x195 + 4 x255 - 9 x315 <= 0
 c91:  4 x16 + 4 x76 + 4 x136 + 4 x196 + 4 x256 - 10 x316 <= 0
 c92:  4 x17 + 4 x77 + 4 x137 + 4 x197 + 4 x257 - 11 x317 <= 0
 c93:  4 x18 + 4 x78 + 4 x138 + 4 x198 + 4 x258 - 10 x318 <= 0
 c94:  4 x19 + 4 x79 + 4 x139 + 4 x199 + 4 x259 - 10 x319 <= 0
 c95:  4 x20 + 4 x80 + 4 x140 + 4 x200 + 4 x260 - 9 x320 <= 0
 c96:  4 x21 + 4 x81 + 4 x141 + 4 x201 + 4 x261 - 10 x321 <= 0
 c97:  4 x22 + 4 x82 + 4 x142 + 4 x202 + 4 x262 - 10 x322 <= 0
 c98:  4 x23 + 4 x83 + 4 x143 + 4 x203 + 4 x263 - 10 x323 <= 0
 c99:  4 x24 + 4 x84 + 4 x144 + 4 x204 + 4 x264 - 10 x324 <= 0
 c100: 4 x25 + 4 x85 + 4 x145 + 4 x205 + 4 x265 - 9 x325 <= 0
 c101: 4 x26 + 4 x86 + 4 x146 + 4 x206 + 4 x266 - 11 x326 <= 0
 c102: 4 x27 + 4 x87 + 4 x147 + 4 x207 + 4 x267 - 10 x327 <= 0
 c103: 4 x28 + 4 x88 + 4 x148 + 4 x208 + 4 x268 - 10 x328 <= 0
 c104: 4 x29 + 4 x89 + 4 x149 + 4 x209 + 4 x269 - 10 x329 <= 0
 c105: 4 x30 + 4 x90 + 4 x150 + 4 x210 + 4 x270 - 11 x330 <= 0
 c106: 4 x31 + 4 x91 + 4 x151 + 4 x211 + 4 x271 - 10 x331 <= 0
 c107: 4 x32 + 4 x92 + 4 x152 + 4 x212 + 4 x272 - 11 x332 <= 0
 c108: 4 x33 + 4 x93 + 4 x153 + 4 x213 + 4 x273 - 10 x333 <= 0
 c109: 4 x34 + 4 x94 + 4 x154 + 4 x214 + 4 x274 - 11 x334 <= 0
 c110: 4 x35 + 4 x95 + 4 x155 + 4 x215 + 4 x275 - 9 x335 <= 0
 c111: 4 x36 + 4 x96 + 4 x156 + 4 x216 + 4 x276 - 11 x336 <= 0
 c112: 4 x37 + 4 x97 + 4 x157 + 4 x217 + 4 x277 - 9 x337 <= 0
 c113: 4 x38 + 4 x98 + 4 x158 + 4 x218 + 4 x278 - 10 x338 <= 0
 c114: 4 x39 + 4 x99 + 4 x159 + 4 x219 + 4 x279 - 9 x339 <= 0
 c115: 4 x40 + 4 x100 + 4 x160 + 4 x220 + 4 x280 - 10 x340 <= 0
 c116: 4 x41 + 4 x101 + 4 x161 + 4 x221 + 4 x281 - 10 x341 <= 0
 c117: 4 x42 + 4 x102 + 4 x162 + 4 x222 + 4 x282 - 10 x342 <= 0
 c118: 4 x43 + 4 x103 + 4 x163 + 4 x223 + 4 x283 - 11 x343 <= 0
 c119: 4 x44 + 4 x104 + 4 x164 + 4 x224 + 4 x284 - 9 x344 <= 0
 c120: 4 x45 + 4 x105 + 4 x165 + 4 x225 + 4 x285 - 10 x345 <= 0
 c121: 4 x46 + 4 x106 + 4 x166 + 4 x226 + 4 x286 - 10 x346 <= 0
 c122: 4 x47 + 4 x107 + 4 x167 + 4 x227 + 4 x287 - 11 x347 <= 0
 c123: 4 x48 + 4 x108 + 4 x168 + 4 x228 + 4 x288 - 10 x348 <= 0
 c124: 4 x49 + 4 x109 + 4 x169 + 4 x229 + 4 x289 - 11 x349 <= 0
 c125: 4 x50 + 4 x110 + 4 x170 + 4 x230 + 4 x290 - 10 x350 <= 0
 c126: 4 x51 + 4 x111 + 4 x171 + 4 x231 + 4 x291 - 10 x351 <= 0
 c127: 4 x52 + 4 x112 + 4 x172 + 4 x232 + 4 x292 - 10 x352 <= 0
 c128: 4 x53 + 4 x113 + 4 x173 + 4 x233 + 4 x293 - 10 x353 <= 0
 c129: 4 x54 + 4 x114 + 4 x174 + 4 x234 + 4 x294 - 10 x354 <= 0
 c130: 4 x55 + 4 x115 + 4 x175 + 4 x235 + 4 x295 - 10 x355 <= 0
 c131: 4 x56 + 4 x116 + 4 x176 + 4 x236 + 4 x296 - 10 x356 <= 0
 c132: 4 x57 + 4 x117 + 4 x177 + 4 x237 + 4 x297 - 10 x357 <= 0
 c133: 4 x58 + 4 x118 + 4 x178 + 4 x238 + 4 x298 - 10 x358 <= 0
 c134: 4 x59 + 4 x119 + 4 x179 + 4 x239 + 4 x299 - 10 x359 <= 0
 c135: 4 x60 + 4 x120 + 4 x180 + 4 x240 + 4 x300 - 11 x360 <= 0
Bounds
 0 <= x1 <= 1
 0 <= x2 <= 1
 0 <= x3 <= 1
 0 <= x4 <= 1
 0 <= x5 <= 1
 0 <= x6 <= 1
 0 <= x7 <= 1
 0 <= x8 <= 1
 0 <= x9 <= 1
 0 <= x10 <= 1
 0 <= x11 <= 1
 0 <= x12 <= 1
 0 <= x13 <= 1
 0 <= x14 <= 1
 0 <= x15 <= 1
 0 <= x16 <= 1
 0 <= x17 <= 1
 0 <= x18 <= 1
 0 <= x19 <= 1
 0 <= x20 <= 1
 0 <= x21 <= 1
 0 <= x22 <= 1
 0 <= x23 <= 1
 0 <= x24 <= 1
 0 <= x25 <= 1
 0 <= x26 <= 1
 0 <= x27 <= 1
 0 <= x28 <= 1
 0 <= x29 <= 1
 0 <= x30 <= 1
 0 <= x31 <= 1
 0 <= x32 <= 1
 0 <= x33 <= 1
 0 <= x34 <= 1
 0 <= x35 <= 1
 0 <= x36 <= 1
 0 <= x37 <= 1
 0 <= x38 <= 1
 0 <= x39 <= 1
 0 <= x40 <= 1
 0 <= x41 <= 1
 0 <= x42 <= 1
 0 <= x43 <= 1
 0 <= x44 <= 1
 0 <= x45 <= 1
 0 <= x46 <= 1
 0 <= x47 <= 1
 0 <= x48 <= 1
 0 <= x49 <= 1
 0 <= x50 <= 1
 0 <= x51 <= 1
 0 <= x52 <= 1
 0 <= x53 <= 1
 0 <= x54 <= 1
 0 <= x55 <= 1
 0 <= x56 <= 1
 0 <= x57 <= 1
 0 <= x58 <= 1
 0 <= x59 <= 1
 0 <= x60 <= 1
 0 <= x61 <= 1
 0 <= x62 <= 1
 0 <= x63 <= 1
 0 <= x64 <= 1
 0 <= x65 <= 1
 0 <= x66 <= 1
 0 <= x67 <= 1
 0 <= x68 <= 1
 0 <= x69 <= 1
 0 <= x70 <= 1
 0 <= x71 <= 1
 0 <= x72 <= 1
 0 <= x73 <= 1
 0 <= x74 <= 1
 0 <= x75 <= 1
 0 <= x76 <= 1
 0 <= x77 <= 1
 0 <= x78 <= 1
 0 <= x79 <= 1
 0 <= x80 <= 1
 0 <= x81 <= 1
 0 <= x82 <= 1
 0 <= x83 <= 1
 0 <= x84 <= 1
 0 <= x85 <= 1
 0 <= x86 <= 1
 0 <= x87 <= 1
 0 <= x88 <= 1
 0 <= x89 <= 1
 0 <= x90 <= 1
 0 <= x91 <= 1
 0 <= x92 <= 1
 0 <= x93 <= 1
 0 <= x94 <= 1
 0 <= x95 <= 1
 0 <= x96 <= 1
 0 <= x97 <= 1
 0 <= x98 <= 1
 0 <= x99 <= 1
 0 <= x100 <= 1
 0 <= x101 <= 1
 0 <= x102 <= 1
 0 <= x103 <= 1
 0 <= x104 <= 1
 0 <= x105 <= 1
 0 <= x106 <= 1
 0 <= x107 <= 1
 0 <= x108 <= 1
 0 <= x109 <= 1
 0 <= x110 <= 1
 0 <= x111 <= 1
 0 <= x112 <= 1
 0 <= x113 <= 1
 0 <= x114 <= 1
 0 <= x115 <= 1
 0 <= x116 <= 1
 0 <= x117 <= 1
 0 <= x118 <= 1
 0 <= x119 <= 1
 0 <= x120 <= 1
 0 <= x121 <= 1
 0 <= x122 <= 1
 0 <= x123 <= 1
 0 <= x124 <= 1
 0 <= x125 <= 1
 0 <= x126 <= 1
 0 <= x127 <= 1
 0 <= x128 <= 1
 0 <= x129 <= 1
 0 <= x130 <= 1
 0 <= x131 <= 1
 0 <= x132 <= 1
 0 <= x133 <= 1
 0 <= x134 <= 1
 0 <= x135 <= 1
 0 <= x136 <= 1
 0 <= x137 <= 1
 0 <= x138 <= 1
 0 <= x139 <= 1
 0 <= x140 <= 1
 0 <= x141 <= 1
 0 <= x142 <= 1
 0 <= x143 <= 1
 0 <= x144 <= 1
 0 <= x145 <= 1
 0 <= x146 <= 1
 0 <= x147 <= 1
 0 <= x148 <= 1
 0 <= x149 <= 1
 0 <= x150 <= 1
 0 <= x151 <= 1
 0 <= x152 <= 1
 0 <= x153 <= 1
 0 <= x154 <= 1
 0 <= x155 <= 1
 0 <= x156 <= 1
 0 <= x157 <= 1
 0 <= x158 <= 1
 0 <= x159 <= 1
 0 <= x160 <= 1
 0 <= x161 <= 1
 0 <= x162 <= 1
 0 <= x163 <= 1
 0 <= x164 <= 1
 0 <= x165 <= 1
 0 <= x166 <= 1
 0 <= x167 <= 1
 0 <= x168 <= 1
 0 <= x169 <= 1
 0 <= x170 <= 1
 0 <= x171 <= 1
 0 <= x172 <= 1
 0 <= x173 <= 1
 0 <= x174 <= 1
 0 <= x175 <= 1
 0 <= x176 <= 1
 0 <= x177 <= 1
 0 <= x178 <= 1
 0 <= x179 <= 1
 0 <= x180 <= 1
 0 <= x181 <= 1
 0 <= x182 <= 1
 0 <= x183 <= 1
 0 <= x184 <= 1
 0 <= x185 <= 1
 0 <= x186 <= 1
 0 <= x187 <= 1
 0 <= x188 <= 1
 0 <= x189 <= 1
 0 <= x190 <= 1
 0 <= x191 <= 1
 0 <= x192 <= 1
 0 <= x193 <= 1
 0 <= x194 <= 1
 0 <= x195 <= 1
 0 <= x196 <= 1
 0 <= x197 <= 1
 0 <= x198 <= 1
 0 <= x199 <= 1
 0 <= x200 <= 1
 0 <= x201 <= 1
 0 <= x202 <= 1
 0 <= x203 <= 1
 0 <= x204 <= 1
 0 <= x205 <= 1
 0 <= x206 <= 1
 0 <= x207 <= 1
 0 <= x208 <= 1
 0 <= x209 <= 1
 0 <= x210 <= 1
 0 <= x211 <= 1
 0 <= x212 <= 1
 0 <= x213 <= 1
 0 <= x214 <= 1
 0 <= x215 <= 1
 0 <= x216 <= 1
 0 <= x217 <= 1
 0 <= x218 <= 1
 0 <= x219 <= 1
 0 <= x220 <= 1
 0 <= x221 <= 1
 0 <= x222 <= 1
 0 <= x223 <= 1
 0 <= x224 <= 1
 0 <= x225 <= 1
 0 <= x226 <= 1
 0 <= x227 <= 1
 0 <= x228 <= 1
 0 <= x229 <= 1
 0 <= x230 <= 1
 0 <= x231 <= 1
 0 <= x232 <= 1
 0 <= x233 <= 1
 0 <= x234 <= 1
 0 <= x235 <= 1
 0 <= x236 <= 1
 0 <= x237 <= 1
 0 <= x238 <= 1
 0 <= x239 <= 1
 0 <= x240 <= 1
 0 <= x241 <= 1
 0 <= x242 <= 1
 0 <= x243 <= 1
 0 <= x244 <= 1
 0 <= x245 <= 1
 0 <= x246 <= 1
 0 <= x247 <= 1
 0 <= x248 <= 1
 0 <= x249 <= 1
 0 <= x250 <= 1
 0 <= x251 <= 1
 0 <= x252 <= 1
 0 <= x253 <= 1
 0 <= x254 <= 1
 0 <= x255 <= 1
 0 <= x256 <= 1
 0 <= x257 <= 1
 0 <= x258 <= 1
 0 <= x259 <= 1
 0 <= x260 <= 1
 0 <= x261 <= 1
 0 <= x262 <= 1
 0 <= x263 <= 1
 0 <= x264 <= 1
 0 <= x265 <= 1
 0 <= x266 <= 1
 0 <= x267 <= 1
 0 <= x268 <= 1
 0 <= x269 <= 1
 0 <= x270 <= 1
 0 <= x271 <= 1
 0 <= x272 <= 1
 0 <= x273 <= 1
 0 <= x274 <= 1
 0 <= x275 <= 1
 0 <= x276 <= 1
 0 <= x277 <= 1
 0 <= x278 <= 1
 0 <= x279 <= 1
 0 <= x280 <= 1
 0 <= x281 <= 1
 0 <= x282 <= 1
 0 <= x283 <= 1
 0 <= x284 <= 1
 0 <= x285 <= 1
 0 <= x286 <= 1
 0 <= x287 <= 1
 0 <= x288 <= 1
 0 <= x289 <= 1
 0 <= x290 <= 1
 0 <= x291 <= 1
 0 <= x292 <= 1
 0 <= x293 <= 1
 0 <= x294 <= 1
 0 <= x295 <= 1
 0 <= x296 <= 1
 0 <= x297 <= 1
 0 <= x298 <= 1
 0 <= x299 <= 1
 0 <= x300 <= 1
 0 <= x301 <= 1
 0 <= x302 <= 1
 0 <= x303 <= 1
 0 <= x304 <= 1
 0 <= x305 <= 1
 0 <= x306 <= 1
 0 <= x307 <= 1
 0 <= x308 <= 1
 0 <= x309 <= 1
 0 <= x310 <= 1
 0 <= x311 <= 1
 0 <= x312 <= 1
 0 <= x313 <= 1
 0 <= x314 <= 1
 0 <= x315 <= 1
 0 <= x316 <= 1
 0 <= x317 <= 1
 0 <= x318 <= 1
 0 <= x319 <= 1
 0 <= x320 <= 1
 0 <= x321 <= 1
 0 <= x322 <= 1
 0 <= x323 <= 1
 0 <= x324 <= 1
 0 <= x325 <= 1
 0 <= x326 <= 1
 0 <= x327 <= 1
 0 <= x328 <= 1
 0 <= x329 <= 1
 0 <= x330 <= 1
 0 <= x331 <= 1
 0 <= x332 <= 1
 0 <= x333 <= 1
 0 <= x334 <= 1
 0 <= x335 <= 1
 0 <= x336 <= 1
 0 <= x337 <= 1
 0 <= x338 <= 1
 0 <= x339 <= 1
 0 <= x340 <= 1
 0 <= x341 <= 1
 0 <= x342 <= 1
 0 <= x343 <= 1
 0 <= x344 <= 1
 0 <= x345 <= 1
 0 <= x346 <= 1
 0 <= x347 <= 1
 0 <= x348 <= 1
 0 <= x349 <= 1
 0 <= x350 <= 1
 0 <= x351 <= 1
 0 <= x352 <= 1
 0 <= x353 <= 1
 0 <= x354 <= 1
 0 <= x355 <= 1
 0 <= x356 <= 1
 0 <= x357 <= 1
 0 <= x358 <= 1
 0 <= x359 <= 1
 0 <= x360 <= 1
Binaries
 x301  x302  x303  x304  x305  x306  x307  x308  x309  x310  x311  x312  x313 
 x314  x315  x316  x317  x318  x319  x320  x321  x322  x323  x324  x325  x326 
 x327  x328  x329  x330  x331  x332  x333  x334  x335  x336  x337  x338  x339 
 x340  x341  x342  x343  x344  x345  x346  x347  x348  x349  x350  x351  x352 
 x353  x354  x355  x356  x357  x358  x359  x360 
End
